[1606, 1540, 1540, 1098, 1134, 1200, 1136, 1008, 952, 980, 768, 730, 730, 680, 650, 610, 568, 568, 432, 426, 304, 284, 288, 260, 132, 132, 132, 124, 124, 124, 124, 124, 124, 124, 124, 122, 122, 122, 122, 122, 122, 122, 122, 122, 120, 120, 120, 120, 120, 120, 120, 120, 120, 120, 120, 120, 120, 120, 120, 120, 120, 120, 120, 120, 120, 120, 120, 120, 120, 120, 120, 120, 120, 120, 120, 120, 120, 120, 120, 120, 120, 120, 120, 120, 120, 120, 120, 120, 120, 120, 120, 120, 120, 120, 120, 120, 120, 120, 120, 120, 120, 120, 120, 120, 120, 120, 120, 120, 120, 120, 120, 116, 116, 116, 116, 114, 114, 114, 114, 114, 114, 114, 114, 114, 114, 114, 114, 114, 114, 114, 114, 114, 114, 114, 114, 114, 114, 114, 114, 114, 114, 114, 114, 114, 114, 114, 114, 114, 114, 114, 114, 114, 114, 114, 114, 114, 114, 114, 114, 114, 114, 114, 114, 114, 114, 114, 114, 114, 114, 114, 114, 114, 114, 114, 114, 114, 114, 114, 114, 114, 114, 112, 112, 112, 112, 112, 110, 110, 110, 110, 110, 110, 110, 110, 110, 110, 110, 110, 110, 110]